
-8.9
-8.4
-8.15
-7.95
-7.7
-7.4
-6.05
-5.05
-3.1
-1.95
-1.5
-1.3
-1.25
-1.15
-1.05
-1.0
-1.0
-1.0
-1.0
-1.0
-1.0
-1.0
-1.0
-1.0
-1.0
-1.0
-0.95
-0.95
-0.95
-0.95
-8.9
-8.7
-8.45
-8.25
-8.05
-7.35
-6.4
-5.15
-3.6
-2.1
-1.75
-1.55
-1.4
-1.35
-1.35
-1.2
-1.2
-1.1
-1.0
-1.0
-1.0
-1.0
-1.0
-1.0
-1.0
-1.0
-1.0
-1.0
-1.0
-1.0
-1.0
-1.0
-1.0
-1.0
-1.0
-1.0
-1.0
-1.0